instances/knapsack/discrete_knapsack_uncertainty/knapsack_60_7.lp
\ Model knapsack_60_7
\ LP format - for model browsing. Use MPS format to capture full model detail.
\ Signature: 0x44a844bc7146bef8
Minimize
  - 25 x[0] - 50 x[1] - 31 x[2] - 59 x[3] - 53 x[4] - 76 x[5] - 57 x[6]
   - 3 x[7] - 50 x[8] - 66 x[9] - 74 x[10] - 42 x[11] - 94 x[12] - 93 x[13]
   - 62 x[14] - 95 x[15] - 41 x[16] - 69 x[17] - 46 x[18] - 77 x[19]
   - 85 x[20] - 58 x[21] - 63 x[22] - 59 x[23] - 92 x[24] - 78 x[25]
   - 99 x[26] - 95 x[27] - 57 x[28] - 92 x[29] - 60 x[30] - 59 x[31]
   - 71 x[32] - 50 x[33] - 59 x[34] - 8 x[35] - 40 x[36] - 42 x[37]
   - 34 x[38] - 59 x[39] - 47 x[40] - 5 x[41] - 65 x[42] - 82 x[43]
   - 94 x[44] - 50 x[45] - 4 x[46] - 64 x[47] - 28 x[48] - 65 x[49]
   - 86 x[50] - 50 x[51] - 54 x[52] - 84 x[53] - 91 x[54] - 93 x[55]
   - 6 x[56] - 55 x[57] - 83 x[58] - 26 x[59]
Subject To
 primal_upper: 99 x[0] + 99 x[1] + 65 x[2] + 54 x[3] + 51 x[4] + 29 x[5]
   + 32 x[6] + 67 x[7] + 16 x[8] + 29 x[9] + 19 x[10] + 10 x[11] + 95 x[12]
   + 95 x[13] + 24 x[14] + 80 x[15] + 52 x[16] + 99 x[17] + 48 x[18]
   + 73 x[19] + 88 x[20] + 71 x[21] + 19 x[22] + 18 x[23] + 16 x[24]
   + 59 x[25] + 29 x[26] + 35 x[27] + 65 x[28] + 14 x[29] + 57 x[30]
   + 27 x[31] + 71 x[32] + 44 x[33] + 15 x[34] + 28 x[35] + 27 x[36]
   + 84 x[37] + 7 x[38] + 22 x[39] + 18 x[40] + 29 x[41] + 25 x[42]
   + 5 x[43] + 10 x[44] + 82 x[45] + x[46] + 77 x[47] + 26 x[48] + 19 x[49]
   + 34 x[50] + 67 x[51] + 12 x[52] + 99 x[53] + 60 x[54] + 71 x[55]
   + 4 x[56] + 66 x[57] + 35 x[58] + 69 x[59] + 9.9 r[0] + 9.9 r[1]
   + 6.5 r[2] + 5.4 r[3] + 5.1 r[4] + 2.9 r[5] + 3.2 r[6] + 6.7 r[7]
   + 1.6 r[8] + 2.9 r[9] + 1.9 r[10] + r[11] + 9.5 r[12] + 9.5 r[13]
   + 2.4 r[14] + 8 r[15] + 5.2 r[16] + 9.9 r[17] + 4.8 r[18] + 7.3 r[19]
   + 8.8 r[20] + 7.1 r[21] + 1.9 r[22] + 1.8 r[23] + 1.6 r[24] + 5.9 r[25]
   + 2.9 r[26] + 3.5 r[27] + 6.5 r[28] + 1.4 r[29] + 5.7 r[30] + 2.7 r[31]
   + 7.1 r[32] + 4.4 r[33] + 1.5 r[34] + 2.8 r[35] + 2.7 r[36] + 8.4 r[37]
   + 0.7 r[38] + 2.2 r[39] + 1.8 r[40] + 2.9 r[41] + 2.5 r[42] + 0.5 r[43]
   + r[44] + 8.2 r[45] + 0.1 r[46] + 7.7 r[47] + 2.6 r[48] + 1.9 r[49]
   + 3.4 r[50] + 6.7 r[51] + 1.2 r[52] + 9.9 r[53] + 6 r[54] + 7.1 r[55]
   + 0.4 r[56] + 6.6 r[57] + 3.5 r[58] + 6.9 r[59] <= 261
 primal_lower: 1.600418326864125 x[0] + 1.913599180869397 x[1]
   + 2.572029521310518 x[2] + 1.0140246045234 x[3] + 3.502308533574085 x[4]
   + 1.14128878639055 x[5] + 1.037718888222838 x[6]
   + 4.337350433089951 x[7] + 3.894976838708208 x[8]
   + 1.909469634938304 x[9] + 1.612418894063874 x[10]
   + 4.46228380271287 x[11] + 0.1218235154508408 x[12]
   + 1.019322896432488 x[13] + 4.036695716597626 x[14]
   + 3.078129718913387 x[15] + 0.5667336762227584 x[16]
   + 4.746143030189904 x[17] + 3.322490904320674 x[18]
   + 3.481191815960714 x[19] + 2.743758463334943 x[20]
   + 2.287844246363412 x[21] + 3.90733597587648 x[22]
   + 1.980357362944904 x[23] + 0.8226629794242161 x[24]
   + 2.241954617446019 x[25] + 2.842410598519701 x[26]
   + 2.839900141531694 x[27] + 1.877853042168336 x[28]
   + 2.225858998804011 x[29] + 2.956046590913996 x[30]
   + 0.1137738153518888 x[31] + 1.435040247862845 x[32]
   + 3.398843503128108 x[33] + 2.392790336652967 x[34]
   + 2.908575225145641 x[35] + 1.550298162177743 x[36]
   + 2.952857294712402 x[37] + 0.6334576610810212 x[38]
   + 4.817703697543999 x[39] + 3.071482761147325 x[40]
   + 4.281780957607324 x[41] + 1.635124719146881 x[42]
   + 1.991954294493014 x[43] + 4.401849901120534 x[44]
   + 1.410083397570654 x[45] + 0.914488001150726 x[46]
   + 0.5712290291557325 x[47] + 1.416379454853052 x[48]
   + 1.149757500954113 x[49] + 1.51908205610454 x[50]
   + 1.031518429457972 x[51] + 3.512363414615847 x[52]
   + 2.423146367747587 x[53] + 3.281911963704918 x[54]
   + 1.463118244509088 x[55] + 3.972593180821882 x[56]
   + 4.537625832512747 x[57] + 3.406567286652897 x[58]
   + 2.373533451544836 x[59] + 56 u[0] + 65 u[1] + 59 u[2] + 48 u[3]
   + 73 u[4] + 78 u[5] + 6 u[6] + 40 u[7] + 10 u[8] + 91 u[9] + 24 u[10]
   + 76 u[11] + u[12] + 69 u[13] + 45 u[14] + 41 u[15] + 14 u[16]
   + 61 u[17] + 10 u[18] + 75 u[19] + 90 u[20] + 64 u[21] + 85 u[22]
   + 43 u[23] + 25 u[24] + 69 u[25] + 83 u[26] + 36 u[27] + 58 u[28]
   + 28 u[29] + 94 u[30] + 84 u[31] + 72 u[32] + 86 u[33] + 81 u[34]
   + 22 u[35] + u[36] + 25 u[37] + 45 u[38] + 95 u[39] + 28 u[40] + 6 u[41]
   + 63 u[42] + 82 u[43] + 44 u[44] + 27 u[45] + 90 u[46] + 2 u[47]
   + 60 u[48] + 33 u[49] + 43 u[50] + 49 u[51] + 70 u[52] + 53 u[53]
   + 65 u[54] + 88 u[55] + 10 u[56] + 7 u[57] + 93 u[58] + 7 u[59]
   <= 59551
 mccormick1[0]: - u[0] + r[0] <= 0
 mccormick1[1]: - u[1] + r[1] <= 0
 mccormick1[2]: - u[2] + r[2] <= 0
 mccormick1[3]: - u[3] + r[3] <= 0
 mccormick1[4]: - u[4] + r[4] <= 0
 mccormick1[5]: - u[5] + r[5] <= 0
 mccormick1[6]: - u[6] + r[6] <= 0
 mccormick1[7]: - u[7] + r[7] <= 0
 mccormick1[8]: - u[8] + r[8] <= 0
 mccormick1[9]: - u[9] + r[9] <= 0
 mccormick1[10]: - u[10] + r[10] <= 0
 mccormick1[11]: - u[11] + r[11] <= 0
 mccormick1[12]: - u[12] + r[12] <= 0
 mccormick1[13]: - u[13] + r[13] <= 0
 mccormick1[14]: - u[14] + r[14] <= 0
 mccormick1[15]: - u[15] + r[15] <= 0
 mccormick1[16]: - u[16] + r[16] <= 0
 mccormick1[17]: - u[17] + r[17] <= 0
 mccormick1[18]: - u[18] + r[18] <= 0
 mccormick1[19]: - u[19] + r[19] <= 0
 mccormick1[20]: - u[20] + r[20] <= 0
 mccormick1[21]: - u[21] + r[21] <= 0
 mccormick1[22]: - u[22] + r[22] <= 0
 mccormick1[23]: - u[23] + r[23] <= 0
 mccormick1[24]: - u[24] + r[24] <= 0
 mccormick1[25]: - u[25] + r[25] <= 0
 mccormick1[26]: - u[26] + r[26] <= 0
 mccormick1[27]: - u[27] + r[27] <= 0
 mccormick1[28]: - u[28] + r[28] <= 0
 mccormick1[29]: - u[29] + r[29] <= 0
 mccormick1[30]: - u[30] + r[30] <= 0
 mccormick1[31]: - u[31] + r[31] <= 0
 mccormick1[32]: - u[32] + r[32] <= 0
 mccormick1[33]: - u[33] + r[33] <= 0
 mccormick1[34]: - u[34] + r[34] <= 0
 mccormick1[35]: - u[35] + r[35] <= 0
 mccormick1[36]: - u[36] + r[36] <= 0
 mccormick1[37]: - u[37] + r[37] <= 0
 mccormick1[38]: - u[38] + r[38] <= 0
 mccormick1[39]: - u[39] + r[39] <= 0
 mccormick1[40]: - u[40] + r[40] <= 0
 mccormick1[41]: - u[41] + r[41] <= 0
 mccormick1[42]: - u[42] + r[42] <= 0
 mccormick1[43]: - u[43] + r[43] <= 0
 mccormick1[44]: - u[44] + r[44] <= 0
 mccormick1[45]: - u[45] + r[45] <= 0
 mccormick1[46]: - u[46] + r[46] <= 0
 mccormick1[47]: - u[47] + r[47] <= 0
 mccormick1[48]: - u[48] + r[48] <= 0
 mccormick1[49]: - u[49] + r[49] <= 0
 mccormick1[50]: - u[50] + r[50] <= 0
 mccormick1[51]: - u[51] + r[51] <= 0
 mccormick1[52]: - u[52] + r[52] <= 0
 mccormick1[53]: - u[53] + r[53] <= 0
 mccormick1[54]: - u[54] + r[54] <= 0
 mccormick1[55]: - u[55] + r[55] <= 0
 mccormick1[56]: - u[56] + r[56] <= 0
 mccormick1[57]: - u[57] + r[57] <= 0
 mccormick1[58]: - u[58] + r[58] <= 0
 mccormick1[59]: - u[59] + r[59] <= 0
 mccormick2[0]: - x[0] + r[0] <= 0
 mccormick2[1]: - x[1] + r[1] <= 0
 mccormick2[2]: - x[2] + r[2] <= 0
 mccormick2[3]: - x[3] + r[3] <= 0
 mccormick2[4]: - x[4] + r[4] <= 0
 mccormick2[5]: - x[5] + r[5] <= 0
 mccormick2[6]: - x[6] + r[6] <= 0
 mccormick2[7]: - x[7] + r[7] <= 0
 mccormick2[8]: - x[8] + r[8] <= 0
 mccormick2[9]: - x[9] + r[9] <= 0
 mccormick2[10]: - x[10] + r[10] <= 0
 mccormick2[11]: - x[11] + r[11] <= 0
 mccormick2[12]: - x[12] + r[12] <= 0
 mccormick2[13]: - x[13] + r[13] <= 0
 mccormick2[14]: - x[14] + r[14] <= 0
 mccormick2[15]: - x[15] + r[15] <= 0
 mccormick2[16]: - x[16] + r[16] <= 0
 mccormick2[17]: - x[17] + r[17] <= 0
 mccormick2[18]: - x[18] + r[18] <= 0
 mccormick2[19]: - x[19] + r[19] <= 0
 mccormick2[20]: - x[20] + r[20] <= 0
 mccormick2[21]: - x[21] + r[21] <= 0
 mccormick2[22]: - x[22] + r[22] <= 0
 mccormick2[23]: - x[23] + r[23] <= 0
 mccormick2[24]: - x[24] + r[24] <= 0
 mccormick2[25]: - x[25] + r[25] <= 0
 mccormick2[26]: - x[26] + r[26] <= 0
 mccormick2[27]: - x[27] + r[27] <= 0
 mccormick2[28]: - x[28] + r[28] <= 0
 mccormick2[29]: - x[29] + r[29] <= 0
 mccormick2[30]: - x[30] + r[30] <= 0
 mccormick2[31]: - x[31] + r[31] <= 0
 mccormick2[32]: - x[32] + r[32] <= 0
 mccormick2[33]: - x[33] + r[33] <= 0
 mccormick2[34]: - x[34] + r[34] <= 0
 mccormick2[35]: - x[35] + r[35] <= 0
 mccormick2[36]: - x[36] + r[36] <= 0
 mccormick2[37]: - x[37] + r[37] <= 0
 mccormick2[38]: - x[38] + r[38] <= 0
 mccormick2[39]: - x[39] + r[39] <= 0
 mccormick2[40]: - x[40] + r[40] <= 0
 mccormick2[41]: - x[41] + r[41] <= 0
 mccormick2[42]: - x[42] + r[42] <= 0
 mccormick2[43]: - x[43] + r[43] <= 0
 mccormick2[44]: - x[44] + r[44] <= 0
 mccormick2[45]: - x[45] + r[45] <= 0
 mccormick2[46]: - x[46] + r[46] <= 0
 mccormick2[47]: - x[47] + r[47] <= 0
 mccormick2[48]: - x[48] + r[48] <= 0
 mccormick2[49]: - x[49] + r[49] <= 0
 mccormick2[50]: - x[50] + r[50] <= 0
 mccormick2[51]: - x[51] + r[51] <= 0
 mccormick2[52]: - x[52] + r[52] <= 0
 mccormick2[53]: - x[53] + r[53] <= 0
 mccormick2[54]: - x[54] + r[54] <= 0
 mccormick2[55]: - x[55] + r[55] <= 0
 mccormick2[56]: - x[56] + r[56] <= 0
 mccormick2[57]: - x[57] + r[57] <= 0
 mccormick2[58]: - x[58] + r[58] <= 0
 mccormick2[59]: - x[59] + r[59] <= 0
 mccormick3[0]: x[0] + u[0] - r[0] <= 1
 mccormick3[1]: x[1] + u[1] - r[1] <= 1
 mccormick3[2]: x[2] + u[2] - r[2] <= 1
 mccormick3[3]: x[3] + u[3] - r[3] <= 1
 mccormick3[4]: x[4] + u[4] - r[4] <= 1
 mccormick3[5]: x[5] + u[5] - r[5] <= 1
 mccormick3[6]: x[6] + u[6] - r[6] <= 1
 mccormick3[7]: x[7] + u[7] - r[7] <= 1
 mccormick3[8]: x[8] + u[8] - r[8] <= 1
 mccormick3[9]: x[9] + u[9] - r[9] <= 1
 mccormick3[10]: x[10] + u[10] - r[10] <= 1
 mccormick3[11]: x[11] + u[11] - r[11] <= 1
 mccormick3[12]: x[12] + u[12] - r[12] <= 1
 mccormick3[13]: x[13] + u[13] - r[13] <= 1
 mccormick3[14]: x[14] + u[14] - r[14] <= 1
 mccormick3[15]: x[15] + u[15] - r[15] <= 1
 mccormick3[16]: x[16] + u[16] - r[16] <= 1
 mccormick3[17]: x[17] + u[17] - r[17] <= 1
 mccormick3[18]: x[18] + u[18] - r[18] <= 1
 mccormick3[19]: x[19] + u[19] - r[19] <= 1
 mccormick3[20]: x[20] + u[20] - r[20] <= 1
 mccormick3[21]: x[21] + u[21] - r[21] <= 1
 mccormick3[22]: x[22] + u[22] - r[22] <= 1
 mccormick3[23]: x[23] + u[23] - r[23] <= 1
 mccormick3[24]: x[24] + u[24] - r[24] <= 1
 mccormick3[25]: x[25] + u[25] - r[25] <= 1
 mccormick3[26]: x[26] + u[26] - r[26] <= 1
 mccormick3[27]: x[27] + u[27] - r[27] <= 1
 mccormick3[28]: x[28] + u[28] - r[28] <= 1
 mccormick3[29]: x[29] + u[29] - r[29] <= 1
 mccormick3[30]: x[30] + u[30] - r[30] <= 1
 mccormick3[31]: x[31] + u[31] - r[31] <= 1
 mccormick3[32]: x[32] + u[32] - r[32] <= 1
 mccormick3[33]: x[33] + u[33] - r[33] <= 1
 mccormick3[34]: x[34] + u[34] - r[34] <= 1
 mccormick3[35]: x[35] + u[35] - r[35] <= 1
 mccormick3[36]: x[36] + u[36] - r[36] <= 1
 mccormick3[37]: x[37] + u[37] - r[37] <= 1
 mccormick3[38]: x[38] + u[38] - r[38] <= 1
 mccormick3[39]: x[39] + u[39] - r[39] <= 1
 mccormick3[40]: x[40] + u[40] - r[40] <= 1
 mccormick3[41]: x[41] + u[41] - r[41] <= 1
 mccormick3[42]: x[42] + u[42] - r[42] <= 1
 mccormick3[43]: x[43] + u[43] - r[43] <= 1
 mccormick3[44]: x[44] + u[44] - r[44] <= 1
 mccormick3[45]: x[45] + u[45] - r[45] <= 1
 mccormick3[46]: x[46] + u[46] - r[46] <= 1
 mccormick3[47]: x[47] + u[47] - r[47] <= 1
 mccormick3[48]: x[48] + u[48] - r[48] <= 1
 mccormick3[49]: x[49] + u[49] - r[49] <= 1
 mccormick3[50]: x[50] + u[50] - r[50] <= 1
 mccormick3[51]: x[51] + u[51] - r[51] <= 1
 mccormick3[52]: x[52] + u[52] - r[52] <= 1
 mccormick3[53]: x[53] + u[53] - r[53] <= 1
 mccormick3[54]: x[54] + u[54] - r[54] <= 1
 mccormick3[55]: x[55] + u[55] - r[55] <= 1
 mccormick3[56]: x[56] + u[56] - r[56] <= 1
 mccormick3[57]: x[57] + u[57] - r[57] <= 1
 mccormick3[58]: x[58] + u[58] - r[58] <= 1
 mccormick3[59]: x[59] + u[59] - r[59] <= 1
Bounds
Binaries
 x[0] x[1] x[2] x[3] x[4] x[5] x[6] x[7] x[8] x[9] x[10] x[11] x[12] x[13]
 x[14] x[15] x[16] x[17] x[18] x[19] x[20] x[21] x[22] x[23] x[24] x[25]
 x[26] x[27] x[28] x[29] x[30] x[31] x[32] x[33] x[34] x[35] x[36] x[37]
 x[38] x[39] x[40] x[41] x[42] x[43] x[44] x[45] x[46] x[47] x[48] x[49]
 x[50] x[51] x[52] x[53] x[54] x[55] x[56] x[57] x[58] x[59] u[0] u[1] u[2]
 u[3] u[4] u[5] u[6] u[7] u[8] u[9] u[10] u[11] u[12] u[13] u[14] u[15]
 u[16] u[17] u[18] u[19] u[20] u[21] u[22] u[23] u[24] u[25] u[26] u[27]
 u[28] u[29] u[30] u[31] u[32] u[33] u[34] u[35] u[36] u[37] u[38] u[39]
 u[40] u[41] u[42] u[43] u[44] u[45] u[46] u[47] u[48] u[49] u[50] u[51]
 u[52] u[53] u[54] u[55] u[56] u[57] u[58] u[59] r[0] r[1] r[2] r[3] r[4]
 r[5] r[6] r[7] r[8] r[9] r[10] r[11] r[12] r[13] r[14] r[15] r[16] r[17]
 r[18] r[19] r[20] r[21] r[22] r[23] r[24] r[25] r[26] r[27] r[28] r[29]
 r[30] r[31] r[32] r[33] r[34] r[35] r[36] r[37] r[38] r[39] r[40] r[41]
 r[42] r[43] r[44] r[45] r[46] r[47] r[48] r[49] r[50] r[51] r[52] r[53]
 r[54] r[55] r[56] r[57] r[58] r[59]
End
