instances/knapsack/discrete/knapsack_60_7.kp
17056
60
261

99 9.9 25
99 9.9 50
65 6.5 31
54 5.4 59
51 5.1 53
29 2.9 76
32 3.2 57
67 6.7 3
16 1.6 50
29 2.9 66
19 1.9 74
10 1.0 42
95 9.5 94
95 9.5 93
24 2.4 62
80 8.0 95
52 5.2 41
99 9.9 69
48 4.8 46
73 7.3 77
88 8.8 85
71 7.1 58
19 1.9 63
18 1.8 59
16 1.6 92
59 5.9 78
29 2.9 99
35 3.5 95
65 6.5 57
14 1.4 92
57 5.7 60
27 2.7 59
71 7.1 71
44 4.4 50
15 1.5 59
28 2.8 8
27 2.7 40
84 8.4 42
7 0.7 34
22 2.2 59
18 1.8 47
29 2.9 5
25 2.5 65
5 0.5 82
10 1.0 94
82 8.2 50
1 0.1 4
77 7.7 64
26 2.6 28
19 1.9 65
34 3.4 86
67 6.7 50
12 1.2 54
99 9.9 84
60 6.0 91
71 7.1 93
4 0.4 6
66 6.6 55
35 3.5 83
69 6.9 26

59551
290

[1.600418326864125 1.9135991808693973 2.5720295213105175 1.0140246045233998 3.502308533574085 1.1412887863905496 1.037718888222838 4.337350433089951 3.8949768387082075 1.909469634938304 1.6124188940638744 4.46228380271287 0.12182351545084084 1.019322896432488 4.0366957165976265 3.078129718913387 0.5667336762227584 4.746143030189904 3.322490904320674 3.481191815960714 2.7437584633349426 2.2878442463634117 3.9073359758764803 1.9803573629449043 0.8226629794242161 2.2419546174460185 2.8424105985197006 2.839900141531694 1.8778530421683357 2.225858998804011 2.9560465909139957 0.11377381535188878 1.435040247862845 3.398843503128108 2.3927903366529666 2.908575225145641 1.550298162177743 2.9528572947124023 0.6334576610810212 4.817703697543999 3.0714827611473248 4.281780957607324 1.6351247191468812 1.9919542944930144 4.401849901120534 1.410083397570654 0.914488001150726 0.5712290291557325 1.4163794548530515 1.1497575009541128 1.5190820561045402 1.0315184294579722 3.5123634146158467 2.4231463677475866 3.2819119637049177 1.4631182445090882 3.9725931808218817 4.537625832512747 3.4065672866528973 2.373533451544836]

[56 65 59 48 73 78 6 40 10 91 24 76 1 69 45 41 14 61 10 75 90 64 85 43 25 69 83 36 58 28 94 84 72 86 81 22 1 25 45 95 28 6 63 82 44 27 90 2 60 33 43 49 70 53 65 88 10 7 93 7]
